c description: Random 2-CNF over 15 variables and 45 clauses
c generator: CNFgen (0.9.0)
c copyright: (C) 2012-2020 Massimo Lauria <massimo.lauria@uniroma1.it>
c url: https://massimolauria.net/cnfgen
c
p cnf 15 45
-1 -13 0
-2 7 0
-6 -10 0
-1 15 0
1 12 0
13 -14 0
6 -7 0
-6 14 0
10 -13 0
5 -9 0
3 -6 0
3 -4 0
-5 -13 0
2 -7 0
10 12 0
-1 14 0
-4 15 0
-1 7 0
2 15 0
-3 -15 0
5 7 0
9 -14 0
1 -12 0
-4 -11 0
-8 -15 0
-1 8 0
6 -10 0
-2 11 0
-5 13 0
-6 -8 0
-5 11 0
-7 13 0
1 4 0
-8 9 0
3 -7 0
4 -9 0
4 -8 0
12 14 0
-3 -10 0
3 5 0
4 7 0
6 8 0
-2 -5 0
11 14 0
-3 -14 0